c Random 9-CNF over 40 variables and 320 clauses
c Generated with `cnfgen`
c (C) 2012-2016 Massimo Lauria <lauria.massimo@gmail.com>
c https://massimolauria.github.io/cnfgen
c
c COMMAND LINE: cnfgen --output tmp-9-40-320.dimacs --output-format dimacs randkcnf 9 40 320
c
c sdimacs generated by gen-sdimacs
c
p cnf 40 320
r 0.5 1 2 3 4 5 6 7 8 9 10 11 12 13 14 15 16 17 18 19 20 0
e  21 22 23 24 25 26 27 28 29 30 31 32 33 34 35 36 37 38 39 40 0
-4 -8 10 -16 19 20 -22 -27 -39 0
1 -2 3 -6 -7 9 -17 -33 -38 0
3 14 17 -19 22 23 30 31 38 0
8 -11 -16 20 21 24 -29 31 -32 0
4 -16 -20 23 25 29 30 32 -33 0
8 -10 11 -13 -16 27 30 38 39 0
4 14 -15 -17 -24 25 -27 -37 -39 0
-4 -8 -9 -14 17 19 26 -32 35 0
-1 -5 12 -14 22 25 -26 34 40 0
3 -5 12 -15 -18 -19 27 34 40 0
4 9 15 -21 23 -28 29 33 34 0
-2 -6 8 13 14 -16 30 -33 -35 0
-5 -6 14 16 22 -23 -34 35 -40 0
1 -4 8 14 18 26 32 -39 -40 0
2 -7 -9 21 26 -28 37 -38 -40 0
-3 4 -9 -16 25 26 -29 38 39 0
-9 12 13 21 -22 -28 -29 -30 -33 0
5 11 -12 15 18 -23 -25 -28 -37 0
1 8 -10 -15 -21 27 -29 -35 40 0
-9 15 16 21 27 29 31 -38 39 0
2 3 -5 -14 -20 21 -35 36 38 0
4 -10 12 22 24 28 31 34 39 0
-2 -6 -12 -13 16 24 26 30 32 0
4 8 11 12 -21 -25 26 31 -36 0
-3 8 -10 -12 13 -23 -24 32 34 0
-3 10 -11 -17 -19 -24 -25 29 -35 0
-2 8 9 -14 19 -25 -28 -36 -38 0
4 6 7 9 13 -17 -26 -27 -32 0
6 7 12 -15 25 -26 27 -34 38 0
-1 3 12 -24 -28 -32 37 38 39 0
5 -12 -18 -22 -35 -36 -37 -38 -39 0
-2 -3 4 -10 -12 -20 -21 -27 -33 0
-5 -11 -13 -22 24 35 36 -37 -40 0
-2 -3 -13 -16 25 28 -30 32 -40 0
-1 6 9 -12 15 -16 21 -30 38 0
2 10 13 -22 -25 29 33 35 37 0
-6 7 15 -19 -21 -26 32 36 40 0
1 8 -11 14 15 18 -25 -32 39 0
4 -5 6 -9 -11 26 -27 28 31 0
3 -12 15 23 -26 -28 -33 34 38 0
2 -6 -14 16 -18 -20 25 29 -38 0
-9 -17 -18 24 25 -30 31 34 38 0
-2 3 5 8 -13 -15 19 20 -38 0
-1 -13 19 -21 -25 31 33 -38 40 0
-1 3 11 -12 17 -22 -24 26 -38 0
11 12 22 23 24 26 28 32 34 0
2 -3 -6 -19 21 -25 27 32 40 0
-3 -8 -13 -14 -24 -25 29 -33 -35 0
14 -15 20 -21 -24 -25 32 -37 -40 0
2 6 -9 13 -19 -24 -26 -30 -40 0
1 3 4 -6 7 -25 -29 30 38 0
12 16 -18 28 -29 30 31 -36 -37 0
1 -4 -8 12 17 19 20 -27 32 0
-6 12 13 18 19 -26 -33 37 -38 0
-6 8 11 19 -25 27 28 -32 -40 0
-7 -9 16 -19 -21 -28 30 37 -39 0
1 8 -10 13 -21 -23 30 34 -36 0
-5 -12 -21 -22 24 25 -27 32 33 0
3 8 12 -15 -16 19 22 30 -32 0
-1 -3 8 -21 -23 -26 27 28 39 0
-2 -11 -12 14 -23 -26 -33 35 39 0
7 9 10 12 18 -20 24 33 -35 0
-1 4 11 -14 17 18 19 -28 -31 0
1 -8 -13 15 -16 29 35 -37 40 0
-4 9 18 -20 24 -26 28 -34 -35 0
9 14 -15 -16 18 23 27 31 -32 0
3 5 15 27 -28 33 -38 39 -40 0
2 4 5 -8 -20 21 24 28 -40 0
3 -5 -12 20 -24 33 -35 -37 38 0
-10 -17 -18 -23 -28 -36 -37 38 39 0
-3 -6 -15 -21 24 -27 29 32 -33 0
-1 -8 -13 -19 21 -24 -28 -36 -37 0
1 -7 -16 25 -32 -34 -36 37 -38 0
3 21 -26 28 -31 -35 -36 39 -40 0
4 -6 8 -12 -13 26 27 -28 -32 0
6 7 8 -10 15 -16 25 -27 -39 0
-1 4 8 -20 -21 -24 29 -36 40 0
-1 5 15 17 23 -29 -35 -36 39 0
-2 -8 -13 -14 21 22 32 -33 38 0
3 10 -17 -20 25 27 -28 -32 -36 0
8 11 13 -14 -18 -24 27 34 40 0
-1 4 -5 16 22 24 30 -35 36 0
-3 -7 -11 -15 -20 -21 38 -39 40 0
4 -8 17 24 26 32 -36 37 39 0
-5 -7 -9 17 -21 29 -34 35 36 0
-1 9 -14 18 19 -26 28 38 39 0
-15 20 23 -27 30 -33 -36 39 40 0
-2 3 12 -16 24 30 36 -38 -39 0
2 -17 18 -19 25 -33 -35 39 40 0
7 -10 11 19 -23 32 -35 -38 39 0
-9 -14 -15 18 25 27 -36 -37 -38 0
-1 12 13 19 -24 33 -35 -38 39 0
3 4 7 14 19 23 28 34 35 0
5 7 -9 -11 13 24 -27 29 -31 0
-9 15 17 -22 27 -29 30 31 -32 0
-3 -14 25 -26 -27 31 -32 36 -37 0
5 9 -10 11 -17 -20 -23 39 40 0
4 -9 -10 -13 -14 17 19 -28 -35 0
7 -8 13 -15 -16 -28 33 34 35 0
5 8 10 15 17 25 30 -33 -36 0
-2 10 -19 21 22 -25 -36 -38 -40 0
-2 8 -10 -19 22 -27 -28 33 37 0
1 10 12 -13 -20 21 29 -31 -37 0
4 -5 -11 17 20 -21 -24 -36 -38 0
2 -7 9 -12 -21 -27 -35 -38 -40 0
-1 -7 -12 -14 22 -27 33 37 -39 0
8 10 -11 12 -13 -19 25 32 -40 0
-3 9 -15 22 -23 29 -31 -33 40 0
-2 -6 12 -17 -21 27 28 -35 -37 0
-1 4 -5 -14 -16 -19 -20 -27 -28 0
3 15 -16 17 25 26 30 37 38 0
-2 9 16 20 -21 31 -34 37 40 0
-5 8 15 -20 23 24 -28 38 39 0
-1 -12 13 16 20 -21 -26 33 -38 0
-3 -11 -15 -16 17 -26 -27 28 31 0
-1 -7 18 19 -20 -22 23 30 -34 0
2 5 -12 28 -29 -33 35 -38 -40 0
-2 3 7 9 10 -18 19 30 40 0
5 13 -21 24 -29 31 -32 35 -36 0
-4 -10 -16 17 -18 20 -22 -32 38 0
3 -6 10 16 22 -24 29 31 37 0
3 -17 19 -21 22 23 -30 -31 32 0
2 6 9 -16 -18 -24 -25 27 39 0
-8 12 -20 21 25 -26 29 30 31 0
-3 7 10 -13 -21 24 -25 29 35 0
-5 14 16 -21 -29 37 -38 -39 40 0
-7 14 15 -18 23 33 34 -36 -38 0
4 -9 -10 16 -22 -27 35 -38 -40 0
5 -9 10 -13 14 33 36 39 40 0
-1 3 5 12 20 23 -25 -36 38 0
8 -14 -16 18 -21 28 -29 33 36 0
8 -11 -14 15 19 -23 24 37 39 0
5 -7 -12 15 -19 -21 22 27 39 0
1 -2 5 -9 13 -18 27 31 38 0
-4 -10 -14 -17 -21 -28 34 -36 -38 0
-1 -2 -14 16 29 30 -31 32 -40 0
-3 -4 -11 12 17 20 -26 35 37 0
-2 3 -7 -11 18 -20 -29 -32 40 0
3 7 -12 13 14 -28 -33 35 -38 0
5 7 15 -17 -20 23 -33 -35 38 0
8 -10 -11 -16 -19 32 35 38 -39 0
-4 -11 -17 19 -22 -28 -29 -30 -40 0
3 -6 -10 -15 -16 -23 -32 -33 37 0
2 -5 9 12 21 24 29 32 -38 0
-6 -7 -11 -12 -13 -14 -23 32 33 0
3 6 9 -10 17 23 -27 34 -40 0
-3 -7 9 -25 29 -33 -34 -36 -37 0
-1 5 8 19 -23 26 -30 32 -35 0
-2 -6 17 21 -24 -31 35 -37 -40 0
5 7 9 11 12 -17 24 30 32 0
1 -7 -10 -14 15 -27 28 31 -32 0
3 6 13 -17 18 -20 -33 34 35 0
1 -2 -3 -4 -8 -16 -19 31 38 0
-4 6 -8 9 10 -11 -12 -29 -33 0
5 -9 11 12 19 -29 -30 37 40 0
1 -2 -4 -8 -9 19 23 -29 -37 0
-8 11 18 -20 24 27 -30 34 35 0
-9 -12 14 17 19 25 -30 -33 38 0
-7 10 -14 19 20 -32 -33 36 39 0
-14 -19 20 -27 28 31 33 35 37 0
-4 -6 -12 -22 -29 -30 31 -35 38 0
3 8 -12 14 -21 -25 27 28 40 0
4 5 15 16 -19 -26 27 -36 -38 0
-2 -8 -11 15 20 -28 29 -30 39 0
-1 -10 -12 -13 -15 -21 -24 28 -40 0
8 -9 -17 -18 24 -34 -36 37 39 0
6 11 15 -16 -19 -24 -29 32 34 0
-5 -8 20 22 25 -26 31 -34 36 0
-2 3 4 -6 -13 25 26 -27 30 0
-18 -22 23 24 -28 -31 33 -38 -40 0
1 3 10 -14 23 27 37 -38 39 0
3 -7 -10 -27 -29 33 34 -37 -39 0
1 4 -8 9 -11 -15 -16 -32 37 0
1 -10 -16 -19 -21 22 -27 38 39 0
-1 -6 -7 -10 -15 16 20 24 28 0
-1 3 7 9 -20 25 -27 -35 36 0
-5 -11 -14 -15 -22 23 25 31 -36 0
-3 4 -7 9 -15 19 23 -35 40 0
-1 4 -7 8 -12 15 -16 23 37 0
2 -3 -17 20 -23 26 -35 36 -38 0
2 -4 -14 21 22 31 33 -34 36 0
1 11 -12 -14 -21 -27 35 -36 40 0
8 11 -12 18 21 31 33 -35 38 0
-9 27 -28 -29 -31 33 35 36 -39 0
-8 -18 -28 31 33 36 -37 38 40 0
1 -5 -12 14 15 -22 25 -26 30 0
-6 -9 10 18 -19 34 35 38 -40 0
-8 13 -15 20 -21 -31 32 -33 34 0
1 -4 -12 16 19 31 36 -37 -40 0
5 -7 -10 18 -19 -20 22 29 33 0
-6 -10 14 -21 -22 -27 -31 -36 -38 0
3 8 -16 20 23 27 -30 32 -36 0
2 -6 11 16 21 -22 -27 29 -38 0
-2 -4 5 17 -18 -23 -24 34 35 0
-3 -9 11 -15 17 26 -31 -33 36 0
-3 -9 -11 -15 -27 28 -33 -35 -39 0
-8 -10 14 16 21 23 -37 38 39 0
2 6 11 -16 -18 24 25 31 40 0
-7 -12 -16 -23 -27 -30 35 -37 39 0
6 9 -12 13 23 -31 34 -36 39 0
6 -7 -8 -9 13 14 -17 -23 38 0
-8 9 18 -20 23 28 29 35 -39 0
3 10 -15 17 -19 -23 29 -31 40 0
-4 5 -12 13 -15 22 -24 -33 -37 0
5 -7 11 -19 -25 30 33 -35 -37 0
4 -8 10 11 -15 -26 -34 36 -37 0
-2 8 9 -11 16 -21 22 -28 -29 0
2 3 -6 -9 19 26 31 -33 39 0
-4 -9 11 -17 20 -21 22 31 38 0
2 -8 20 22 -32 33 36 37 -40 0
-2 6 7 15 22 -23 -24 25 30 0
-1 4 10 21 -22 -23 24 27 -37 0
1 -5 7 16 17 22 -27 -28 -32 0
9 -15 16 17 -18 24 27 -28 32 0
-1 -2 -16 20 24 27 -34 36 37 0
-12 13 -15 23 -26 -29 -32 35 -38 0
7 -8 17 20 -21 23 31 32 -35 0
-6 -8 13 16 -20 21 24 -25 -33 0
7 8 -9 17 -30 33 35 -36 -37 0
-1 7 10 11 -14 19 27 28 29 0
1 2 4 5 9 14 -17 -27 30 0
-2 -14 -19 21 -23 -27 37 38 39 0
-4 9 10 18 -27 -29 -30 35 -36 0
1 -7 8 9 20 -26 -33 -34 -40 0
-3 -10 -11 -15 -16 17 -26 27 33 0
4 -5 -11 15 -16 22 23 -30 -31 0
-2 7 -8 14 18 -23 26 -30 -32 0
-8 11 -24 27 -28 -29 32 34 40 0
-4 7 -14 16 -24 -34 -35 -37 -38 0
-3 5 6 -9 21 26 27 -31 38 0
-5 -6 10 12 14 -27 -33 -34 38 0
-4 12 16 -20 -21 22 -23 29 -36 0
7 13 14 -15 26 31 32 -36 -40 0
-11 17 -19 20 -22 -24 -34 35 -36 0
-5 -11 12 -21 -22 24 -32 38 40 0
4 5 -7 -10 -20 -21 -22 -24 30 0
-2 4 -13 -15 16 21 -25 -26 36 0
-1 -9 15 -23 -24 25 -30 32 -40 0
-3 5 10 15 16 21 -24 -30 -37 0
-2 6 21 22 23 -25 -32 -33 -35 0
-4 -6 8 11 12 13 -14 27 -33 0
3 13 -14 -16 -17 20 -27 -28 36 0
-1 -4 9 -17 -21 -29 -30 -32 40 0
-1 3 -4 7 -10 12 15 19 40 0
-1 3 4 -15 -16 18 -21 -30 33 0
1 3 6 -7 10 12 -16 18 -32 0
8 -10 -15 -17 20 -21 26 -33 35 0
-1 -3 6 7 13 16 -23 -24 -27 0
8 -20 21 27 -28 -30 -33 35 36 0
10 -11 -12 13 -15 16 24 -26 27 0
4 8 9 13 20 34 35 36 37 0
4 5 -13 -15 20 23 25 -35 38 0
2 -6 9 11 21 24 28 32 34 0
11 12 13 -25 -30 -33 -34 38 39 0
4 -12 -18 20 26 -31 36 -37 -40 0
-1 25 26 29 -35 -36 -37 -38 -39 0
-1 2 3 -4 -5 10 12 37 -39 0
-4 -20 21 23 25 30 31 -34 -36 0
-8 12 -14 -17 -20 -25 -33 34 -40 0
-2 5 7 -15 17 -24 31 38 -40 0
-11 13 16 -19 -20 -22 -24 -26 30 0
-8 13 17 19 -21 25 -34 -36 40 0
-3 6 -11 20 -24 27 -28 33 38 0
-1 -6 -7 12 18 -23 36 37 -40 0
-2 -4 -17 19 -22 31 -33 35 37 0
-1 8 12 -17 21 28 -36 38 40 0
-1 -3 7 8 12 16 22 23 38 0
3 -9 10 -18 -25 -26 28 -29 32 0
-5 8 -11 15 18 32 -33 36 -40 0
5 7 8 12 -21 24 -32 35 -38 0
2 -7 -8 12 14 24 -30 36 40 0
-3 -4 -7 8 -12 -13 -17 23 -25 0
2 -5 -14 -18 26 -32 -35 38 -40 0
2 -5 11 -19 -20 22 26 30 38 0
6 -7 8 -10 -23 26 27 -33 40 0
-2 3 -13 18 -22 -35 -37 -39 -40 0
5 13 14 -22 -28 29 31 -32 35 0
-4 14 -17 27 -29 -31 32 -37 -39 0
3 4 5 -9 -10 19 21 32 -36 0
2 -3 -6 12 19 21 -26 28 33 0
-3 5 7 -10 21 -29 33 35 -37 0
1 11 -12 15 16 -19 28 35 -40 0
-2 7 -13 -20 -22 28 35 -38 -39 0
2 -5 -12 24 26 -30 -31 -37 40 0
2 7 8 -12 18 -22 23 -29 -36 0
2 -4 -9 -14 -20 -22 -23 26 -34 0
4 8 13 -16 17 -19 -21 24 -25 0
-6 8 -9 -11 -14 -19 -21 -28 30 0
1 3 -6 10 -21 -28 31 -35 -37 0
-5 -14 16 -27 -30 34 35 36 40 0
2 14 -17 21 -25 27 28 -34 38 0
-6 -9 -11 -12 19 -23 29 31 -35 0
1 2 -9 16 -26 -27 30 34 -39 0
1 -7 -11 -12 13 17 -23 28 -32 0
-10 14 19 -21 25 28 -32 -39 40 0
-3 9 -15 -21 -23 -31 -36 -37 38 0
10 19 -21 25 -27 28 -36 39 40 0
-4 -9 -13 14 -17 -21 29 30 -31 0
2 4 -6 -8 13 -14 -17 24 -34 0
-2 8 17 -21 24 25 29 -34 -38 0
1 2 -3 6 9 -28 34 -35 -38 0
-6 -18 22 -27 -31 33 -36 -39 -40 0
-6 10 14 -16 -21 -27 -29 31 34 0
-9 10 11 14 -26 32 -33 -38 40 0
-3 -12 -16 18 -22 -29 32 -34 -40 0
-1 -6 -15 24 25 -26 -28 -29 30 0
8 -14 16 22 26 32 -34 -36 -38 0
4 10 -11 15 21 -24 25 27 -30 0
-9 -11 14 -17 -18 -20 31 -33 -38 0
3 -5 7 12 18 -23 24 27 -34 0
-6 7 -9 13 -18 -21 -29 34 -38 0
4 6 -9 11 -18 19 20 -30 -38 0
3 -10 -13 -18 -19 -25 30 -31 -34 0
-3 -6 -11 23 25 29 33 -35 -37 0
7 16 -20 -26 -27 -29 -31 -32 39 0
-5 12 -14 15 19 23 28 -29 -33 0
-5 -13 16 19 20 22 30 33 39 0
-3 6 -10 -15 -17 19 -20 27 -37 0
2 -6 14 16 -22 23 26 -30 -37 0
-5 8 9 14 -22 35 -36 -37 39 0
